************************************************************************
file with basedata            : md382_.bas
initial value random generator: 591260969
************************************************************************
projects                      :  1
jobs (incl. supersource/sink ):  22
horizon                       :  157
RESOURCES
  - renewable                 :  2   R
  - nonrenewable              :  2   N
  - doubly constrained        :  0   D
************************************************************************
PROJECT INFORMATION:
pronr.  #jobs rel.date duedate tardcost  MPM-Time
    1     20      0       20       19       20
************************************************************************
PRECEDENCE RELATIONS:
jobnr.    #modes  #successors   successors
   1        1          3           2   3   4
   2        3          3           5   8  14
   3        3          3           8  12  18
   4        3          3           6  11  15
   5        3          3           7  16  18
   6        3          2           9  12
   7        3          3          10  12  15
   8        3          1          13
   9        3          2          10  19
  10        3          2          13  21
  11        3          3          16  18  21
  12        3          3          13  19  21
  13        3          1          20
  14        3          1          16
  15        3          1          20
  16        3          1          17
  17        3          1          19
  18        3          1          20
  19        3          1          22
  20        3          1          22
  21        3          1          22
  22        1          0        
************************************************************************
REQUESTS/DURATIONS:
jobnr. mode duration  R 1  R 2  N 1  N 2
------------------------------------------------------------------------
  1      1     0       0    0    0    0
  2      1     2       4    8    9    6
         2     4       3    7    8    6
         3     4       2    7    9    6
  3      1     5       7    7    3    7
         2     6       6    6    2    4
         3     8       3    4    1    2
  4      1     1       6    8   10    9
         2     2       4    8    7    9
         3     6       3    8    4    9
  5      1     2       3    9   10    4
         2     4       3    7   10    3
         3     9       3    4   10    3
  6      1     5       4    7    4    8
         2     7       2    5    1    8
         3     7       2    7    3    7
  7      1     3       3    9    7    4
         2     4       2    7    7    3
         3     9       2    7    4    3
  8      1     4       6    9    8   10
         2     4       7    8    8    8
         3     6       5    4    7    5
  9      1     7       8    4    8    6
         2     7       5    4    9    7
         3     9       5    4    8    4
 10      1     4       6    9    8    5
         2     5       4    9    6    3
         3     9       1    8    4    2
 11      1     6       2   10    2    5
         2     9       2    7    2    4
         3    10       1    5    1    4
 12      1     2       5    4    8    8
         2     3       4    3    4    3
         3     6       4    3    1    3
 13      1     1      10    4   10    8
         2     3      10    3    9    7
         3     8      10    3    6    5
 14      1     4       8    6    9    7
         2     7       7    6    7    7
         3     9       5    5    5    7
 15      1     7       5    9    8    5
         2    10       1    9    7    2
         3    10       2    9    4    3
 16      1     3       6    7    9    8
         2     5       5    6    8    8
         3    10       5    5    7    7
 17      1     4       7    8    4    8
         2     7       7    5    3    4
         3     9       7    4    1    3
 18      1     3       7   10    5    8
         2     7       6    6    5    6
         3     8       5    3    3    4
 19      1     4      10    3    4    4
         2     6       8    2    3    4
         3     8       5    1    1    4
 20      1     2       7    3    9    2
         2     5       5    3    8    2
         3     7       4    2    8    1
 21      1     3       3    9    5    6
         2     5       2    8    3    4
         3     5       2    7    5    2
 22      1     0       0    0    0    0
************************************************************************
RESOURCEAVAILABILITIES:
  R 1  R 2  N 1  N 2
   24   26  141  129
************************************************************************
MAXIMAL LAGS:
from  to  type  delay
    1   12   ES      0
    1    2   ES      0
    2   12   ES      0
    1    3   ES      0
    3   12   ES      0
    1    4   ES      0
    4   12   ES      0
    1    5   ES      0
    5   12   ES      0
    1    6   ES      0
    6   12   ES      0
    1    7   ES      0
    7   12   ES      0
    1    8   ES      0
    8   12   ES      0
    1    9   ES      0
    9   12   ES      0
    1   10   ES      0
   10   12   ES      0
    1   11   ES      0
   11   12   ES      0
    1   12   ES      0
    2    5   SS      7
    2    5   SE      0
    2    5   ES     -2
    2    5   EE     -2
    2    8   SS    -11
    2    8   SE     -7
    2    8   ES     10
    2    8   EE     -4
    2   14   SS     11
    2   14   SE     -7
    2   14   ES     10
    2   14   EE    -10
    3    8   SS      4
    3    8   SE      9
    3    8   ES     -8
    3    8   EE     -2
    3   18   SS     -4
    3   18   SE      8
    3   18   ES      4
    3   18   EE    -11
    4    6   SS     -2
    4    6   SE     10
    4    6   ES      2
    4    6   EE     -1
    4   11   SS      7
    4   11   SE     -2
    4   11   ES    -12
    4   11   EE     -7
    4   15   SS     -3
    4   15   SE     -8
    4   15   ES     -4
    4   15   EE      8
    5    7   SS     12
    5    7   SE     -8
    5    7   ES      1
    5    7   EE     -6
    5   16   SS     -5
    5   16   SE     -1
    5   16   ES     -7
    5   16   EE     -5
    5   18   SS     -9
    5   18   SE      9
    5   18   ES      2
    5   18   EE      8
    6    9   SS     -2
    6    9   SE     -3
    6    9   ES      4
    6    9   EE      2
    7   10   SS      3
    7   10   SE     -9
    7   10   ES      9
    7   10   EE     -6
    7   15   SS     -8
    7   15   SE    -12
    7   15   ES     -8
    7   15   EE    -12
    8   13   SS      0
    8   13   SE    -10
    8   13   ES     10
    8   13   EE     -6
    9   10   SS      7
    9   10   SE      8
    9   10   ES     -8
    9   10   EE    -12
    9   19   SS     -5
    9   19   SE     -9
    9   19   ES     12
    9   19   EE      4
   10   13   SS      1
   10   13   SE      2
   10   13   ES      1
   10   13   EE     11
   10   21   SS      2
   10   21   SE     -4
   10   21   ES     -3
   10   21   EE      4
   11   16   SS     -7
   11   16   SE     -7
   11   16   ES      4
   11   16   EE     11
   11   18   SS      3
   11   18   SE      5
   11   18   ES    -12
   11   18   EE      3
   11   21   SS     -6
   11   21   SE      7
   11   21   ES    -11
   11   21   EE    -11
   12   13   SS     -3
   12   13   SE      7
   12   13   ES      1
   12   13   EE     -5
   12   19   SS    -11
   12   19   SE     10
   12   19   ES      6
   12   19   EE      0
   12   21   SS      1
   12   21   SE      0
   12   21   ES      2
   12   21   EE     12
   13   20   SS      1
   13   20   SE     -7
   13   20   ES      6
   13   20   EE      0
   14   16   SS    -11
   14   16   SE      8
   14   16   ES     -7
   14   16   EE     10
   15   20   SS      7
   15   20   SE      1
   15   20   ES      8
   15   20   EE     -3
   16   17   SS      7
   16   17   SE      7
   16   17   ES    -10
   16   17   EE      8
   17   19   SS    -11
   17   19   SE     -4
   17   19   ES     10
   17   19   EE      3
   18   20   SS     -9
   18   20   SE      1
   18   20   ES     -3
   18   20   EE      7
   19   22   SS     -2
   19   22   SE     -4
   19   22   ES     -2
   19   22   EE      8
   20   22   SS      4
   20   22   SE     -4
   20   22   ES     11
   20   22   EE     -3
   21   22   SS      1
   21   22   SE     -1
   21   22   ES      2
   21   22   EE      2
************************************************************************
